db/inputs/15447927299542807735014971007721040.smt2
(set-logic QF_FP)
(declare-const x0 (_ FloatingPoint 11 53))
(declare-const x1 (_ FloatingPoint 11 53))
(assert (fp.eq (fp.div RNE x1 x1) (fp.div RNE x1 x0)))
(assert (fp.lt (fp.div RNE x1 x0) (fp.mul RNE x1 x0)))
(assert (fp.eq (fp.mul RNE x1 x1) (fp.neg x0)))
(assert (fp.eq (fp.mul RNE x1 x1) (fp.sub RNE x1 x1)))
(assert (fp.gt (fp.sub RNE x0 x1) (fp.add RNE x1 x0)))
(check-sat)
