db/data/15447927299542807735014971007721040.z3.out
unsat
-------------------
3.521405247
